\* Chen_et_al_Variable_Length_Coupling *\
Minimize
OBJ: lambda_obj
Subject To
_C1: p1 = 1
_C10: p2 - 3 p3 + 2 p4 >= 0
_C100: - 10000000000 lambda_obj - 10000000000 p2 - 10000000000 p4 + pr_ev_6
 >= -10000000000
_C101: lambda_1_0_6 + 0.95078125596 p2 >= 1.04921874404
_C102: lambda_1_1_6 + 0.0492187440395 lambda_obj + p3 >= 1.04921874405
_C103: lambda_1_2_6 + p2 - 2 p3 + 2 p4 >= 1
_C104: lambda_2_00_6 - 0.0984374880791 p2 - p3 >= 2.09843748808
_C105: lambda_2_10_6 + 0.0492187440395 lambda_obj - 1.04921874404 p2
 >= 2.09843748809
_C106: lambda_2_11_6 + 0.0984374880791 lambda_obj - 3 p2 + p4 >= 1.0984374881
_C107: lambda_2_11_6 + 0.0984374880791 lambda_obj - 2 p2 + 2 p3 - 3 p4 + 3 p5
 >= 0.0984374880988
_C108: lambda_2_20_6 - 0.0492187440395 p2 - 2 p3 + p5 >= 2.04921874404
_C109: lambda_2_21_6 + 0.0492187440395 lambda_obj - p2 - 2 p3 + p5
 >= 2.04921874405
_C11: 2 p3 - 5 p4 + 3 p5 >= 0
_C110: lambda_2_21_6 + 0.0492187440395 lambda_obj - 3 p5 + 2 p6
 >= 2.04921874405
_C111: lambda_2_22_6 - 4 p3 - p7 >= 2
_C112: - lambda_1_2_6 + lambda_obj >= 1
_C113: - 10000000000 lambda_obj + pr_ev_7 >= -10000000000
_C114: lambda_1_0_7 + 0.95078125596 p2 >= 1.04921874404
_C115: lambda_1_1_7 + 0.0492187440395 lambda_obj + p3 >= 1.04921874405
_C116: lambda_1_2_7 + p2 - 2 p3 + 2 p4 >= 1
_C117: lambda_2_00_7 - 0.0984374880791 p2 - p3 >= 2.09843748808
_C118: lambda_2_10_7 + 0.0492187440395 lambda_obj - 1.04921874404 p2
 >= 2.09843748809
_C119: lambda_2_11_7 + 0.0984374880791 lambda_obj - 3 p2 + p4 >= 1.0984374881
_C12: 2 p3 - 2 p4 - 4 p5 + 4 p6 >= 0
_C120: lambda_2_11_7 + 0.0984374880791 lambda_obj - 2 p2 + 2 p3 - 3 p4 + 3 p5
 >= 0.0984374880988
_C121: lambda_2_20_7 - 0.0492187440395 p2 - 2 p3 + p5 >= 2.04921874404
_C122: lambda_2_21_7 + 0.0492187440395 lambda_obj - p2 - 2 p3 + p5
 >= 2.04921874405
_C123: lambda_2_21_7 + 0.0492187440395 lambda_obj - 3 p5 + 2 p6
 >= 2.04921874405
_C124: lambda_2_22_7 - 4 p3 - p7 >= 2
_C125: - 0.5 lambda_2_20_7 + lambda_obj >= 0.5
_C126: - 10000000000 lambda_obj + pr_ev_8 >= -10000000000
_C127: lambda_1_0_8 + 0.95078125596 p2 >= 1.04921874404
_C128: lambda_1_1_8 + 0.0492187440395 lambda_obj + p3 >= 1.04921874405
_C129: lambda_1_2_8 + p2 - 2 p3 + 2 p4 >= 1
_C13: 2 p3 - 2 p4 - 5 p6 + 5 p7 >= 0
_C130: lambda_2_00_8 - 0.0984374880791 p2 - p3 >= 2.09843748808
_C131: lambda_2_10_8 + 0.0492187440395 lambda_obj - 1.04921874404 p2
 >= 2.09843748809
_C132: lambda_2_11_8 + 0.0984374880791 lambda_obj - 3 p2 + p4 >= 1.0984374881
_C133: lambda_2_11_8 + 0.0984374880791 lambda_obj - 2 p2 + 2 p3 - 3 p4 + 3 p5
 >= 0.0984374880988
_C134: lambda_2_20_8 - 0.0492187440395 p2 - 2 p3 + p5 >= 2.04921874404
_C135: lambda_2_21_8 + 0.0492187440395 lambda_obj - p2 - 2 p3 + p5
 >= 2.04921874405
_C136: lambda_2_21_8 + 0.0492187440395 lambda_obj - 3 p5 + 2 p6
 >= 2.04921874405
_C137: lambda_2_22_8 - 4 p3 - p7 >= 2
_C138: - 0.5 lambda_2_21_8 + lambda_obj >= 0.5
_C139: - 10000000000 lambda_obj + pr_ev_9 >= -10000000000
_C14: p4 - 2 p5 + p6 >= 0
_C140: lambda_1_0_9 + 0.95078125596 p2 >= 1.04921874404
_C141: lambda_1_1_9 + 0.0492187440395 lambda_obj + p3 >= 1.04921874405
_C142: lambda_1_2_9 + p2 - 2 p3 + 2 p4 >= 1
_C143: lambda_2_00_9 - 0.0984374880791 p2 - p3 >= 2.09843748808
_C144: lambda_2_10_9 + 0.0492187440395 lambda_obj - 1.04921874404 p2
 >= 2.09843748809
_C145: lambda_2_11_9 + 0.0984374880791 lambda_obj - 3 p2 + p4 >= 1.0984374881
_C146: lambda_2_11_9 + 0.0984374880791 lambda_obj - 2 p2 + 2 p3 - 3 p4 + 3 p5
 >= 0.0984374880988
_C147: lambda_2_20_9 - 0.0492187440395 p2 - 2 p3 + p5 >= 2.04921874404
_C148: lambda_2_21_9 + 0.0492187440395 lambda_obj - p2 - 2 p3 + p5
 >= 2.04921874405
_C149: lambda_2_21_9 + 0.0492187440395 lambda_obj - 3 p5 + 2 p6
 >= 2.04921874405
_C15: p5 - 2 p6 + p7 >= 0
_C150: lambda_2_22_9 - 4 p3 - p7 >= 2
_C151: - 0.5 lambda_2_22_9 + lambda_obj >= 0.5
_C16: 0.315789473684 p2 >= 0.0492187440395
_C17: - p1 + p2 <= 0
_C18: - p2 + p3 <= 0
_C19: - p3 + p4 <= 0
_C2: p2 <= 0.333333333333
_C20: - p4 + p5 <= 0
_C21: - p5 + p6 <= 0
_C22: - 10000000000 lambda_obj - 20000000000 p2 + pr_ev_0 >= -10000000000
_C23: lambda_1_0_0 + 0.95078125596 p2 >= 1.04921874404
_C24: lambda_1_1_0 + 0.0492187440395 lambda_obj + p3 >= 1.04921874405
_C25: lambda_1_2_0 + p2 - 2 p3 + 2 p4 >= 1
_C26: lambda_2_00_0 - 0.0984374880791 p2 - p3 >= 2.09843748808
_C27: lambda_2_10_0 + 0.0492187440395 lambda_obj - 1.04921874404 p2
 >= 2.09843748809
_C28: lambda_2_11_0 + 0.0984374880791 lambda_obj - 3 p2 + p4 >= 1.0984374881
_C29: lambda_2_11_0 + 0.0984374880791 lambda_obj - 2 p2 + 2 p3 - 3 p4 + 3 p5
 >= 0.0984374880988
_C3: p7 = 0
_C30: lambda_2_20_0 - 0.0492187440395 p2 - 2 p3 + p5 >= 2.04921874404
_C31: lambda_2_21_0 + 0.0492187440395 lambda_obj - p2 - 2 p3 + p5
 >= 2.04921874405
_C32: lambda_2_21_0 + 0.0492187440395 lambda_obj - 3 p5 + 2 p6
 >= 2.04921874405
_C33: lambda_2_22_0 - 4 p3 - p7 >= 2
_C34: - lambda_1_0_0 + lambda_obj - 4.92187440395e-12 pr_ev_0 >= 1
_C35: - 10000000000 lambda_obj - 10000000000 p2 - 10000000000 p3 + pr_ev_1
 >= -10000000000
_C36: lambda_1_0_1 + 0.95078125596 p2 >= 1.04921874404
_C37: lambda_1_1_1 + 0.0492187440395 lambda_obj + p3 >= 1.04921874405
_C38: lambda_1_2_1 + p2 - 2 p3 + 2 p4 >= 1
_C39: lambda_2_00_1 - 0.0984374880791 p2 - p3 >= 2.09843748808
_C4: - 0.666666666667 p2 + p3 <= 0
_C40: lambda_2_10_1 + 0.0492187440395 lambda_obj - 1.04921874404 p2
 >= 2.09843748809
_C41: lambda_2_11_1 + 0.0984374880791 lambda_obj - 3 p2 + p4 >= 1.0984374881
_C42: lambda_2_11_1 + 0.0984374880791 lambda_obj - 2 p2 + 2 p3 - 3 p4 + 3 p5
 >= 0.0984374880988
_C43: lambda_2_20_1 - 0.0492187440395 p2 - 2 p3 + p5 >= 2.04921874404
_C44: lambda_2_21_1 + 0.0492187440395 lambda_obj - p2 - 2 p3 + p5
 >= 2.04921874405
_C45: lambda_2_21_1 + 0.0492187440395 lambda_obj - 3 p5 + 2 p6
 >= 2.04921874405
_C46: lambda_2_22_1 - 4 p3 - p7 >= 2
_C47: - lambda_1_1_1 + lambda_obj >= 1
_C48: - 10000000000 lambda_obj - 10000000000 p3 + pr_ev_2 >= -10000000000
_C49: lambda_1_0_2 + 0.95078125596 p2 >= 1.04921874404
_C5: - 0.666666666667 p3 + p4 <= 0
_C50: lambda_1_1_2 + 0.0492187440395 lambda_obj + p3 >= 1.04921874405
_C51: lambda_1_2_2 + p2 - 2 p3 + 2 p4 >= 1
_C52: lambda_2_00_2 - 0.0984374880791 p2 - p3 >= 2.09843748808
_C53: lambda_2_10_2 + 0.0492187440395 lambda_obj - 1.04921874404 p2
 >= 2.09843748809
_C54: lambda_2_11_2 + 0.0984374880791 lambda_obj - 3 p2 + p4 >= 1.0984374881
_C55: lambda_2_11_2 + 0.0984374880791 lambda_obj - 2 p2 + 2 p3 - 3 p4 + 3 p5
 >= 0.0984374880988
_C56: lambda_2_20_2 - 0.0492187440395 p2 - 2 p3 + p5 >= 2.04921874404
_C57: lambda_2_21_2 + 0.0492187440395 lambda_obj - p2 - 2 p3 + p5
 >= 2.04921874405
_C58: lambda_2_21_2 + 0.0492187440395 lambda_obj - 3 p5 + 2 p6
 >= 2.04921874405
_C59: lambda_2_22_2 - 4 p3 - p7 >= 2
_C6: - 0.666666666667 p4 + p5 <= 0
_C60: - 0.5 lambda_2_00_2 + lambda_obj - 4.92187440395e-12 pr_ev_2 >= 0.5
_C61: - 10000000000 lambda_obj - 5000000000 p3 - 5000000000 p4 + pr_ev_3
 >= -10000000000
_C62: lambda_1_0_3 + 0.95078125596 p2 >= 1.04921874404
_C63: lambda_1_1_3 + 0.0492187440395 lambda_obj + p3 >= 1.04921874405
_C64: lambda_1_2_3 + p2 - 2 p3 + 2 p4 >= 1
_C65: lambda_2_00_3 - 0.0984374880791 p2 - p3 >= 2.09843748808
_C66: lambda_2_10_3 + 0.0492187440395 lambda_obj - 1.04921874404 p2
 >= 2.09843748809
_C67: lambda_2_11_3 + 0.0984374880791 lambda_obj - 3 p2 + p4 >= 1.0984374881
_C68: lambda_2_11_3 + 0.0984374880791 lambda_obj - 2 p2 + 2 p3 - 3 p4 + 3 p5
 >= 0.0984374880988
_C69: lambda_2_20_3 - 0.0492187440395 p2 - 2 p3 + p5 >= 2.04921874404
_C7: - 0.666666666667 p5 + p6 <= 0
_C70: lambda_2_21_3 + 0.0492187440395 lambda_obj - p2 - 2 p3 + p5
 >= 2.04921874405
_C71: lambda_2_21_3 + 0.0492187440395 lambda_obj - 3 p5 + 2 p6
 >= 2.04921874405
_C72: lambda_2_22_3 - 4 p3 - p7 >= 2
_C73: - 0.5 lambda_2_10_3 + lambda_obj - 2.46093720198e-12 pr_ev_3 >= 0.5
_C74: - 10000000000 lambda_obj - 5000000000 p3 - 5000000000 p4 + pr_ev_4
 >= -10000000000
_C75: lambda_1_0_4 + 0.95078125596 p2 >= 1.04921874404
_C76: lambda_1_1_4 + 0.0492187440395 lambda_obj + p3 >= 1.04921874405
_C77: lambda_1_2_4 + p2 - 2 p3 + 2 p4 >= 1
_C78: lambda_2_00_4 - 0.0984374880791 p2 - p3 >= 2.09843748808
_C79: lambda_2_10_4 + 0.0492187440395 lambda_obj - 1.04921874404 p2
 >= 2.09843748809
_C8: - 0.666666666667 p6 + p7 <= 0
_C80: lambda_2_11_4 + 0.0984374880791 lambda_obj - 3 p2 + p4 >= 1.0984374881
_C81: lambda_2_11_4 + 0.0984374880791 lambda_obj - 2 p2 + 2 p3 - 3 p4 + 3 p5
 >= 0.0984374880988
_C82: lambda_2_20_4 - 0.0492187440395 p2 - 2 p3 + p5 >= 2.04921874404
_C83: lambda_2_21_4 + 0.0492187440395 lambda_obj - p2 - 2 p3 + p5
 >= 2.04921874405
_C84: lambda_2_21_4 + 0.0492187440395 lambda_obj - 3 p5 + 2 p6
 >= 2.04921874405
_C85: lambda_2_22_4 - 4 p3 - p7 >= 2
_C86: - 0.5 lambda_2_10_4 + lambda_obj - 2.46093720198e-12 pr_ev_4 >= 0.5
_C87: - 10000000000 lambda_obj - 10000000000 p4 + pr_ev_5 >= -10000000000
_C88: lambda_1_0_5 + 0.95078125596 p2 >= 1.04921874404
_C89: lambda_1_1_5 + 0.0492187440395 lambda_obj + p3 >= 1.04921874405
_C9: - 2 p2 + p3 >= -1
_C90: lambda_1_2_5 + p2 - 2 p3 + 2 p4 >= 1
_C91: lambda_2_00_5 - 0.0984374880791 p2 - p3 >= 2.09843748808
_C92: lambda_2_10_5 + 0.0492187440395 lambda_obj - 1.04921874404 p2
 >= 2.09843748809
_C93: lambda_2_11_5 + 0.0984374880791 lambda_obj - 3 p2 + p4 >= 1.0984374881
_C94: lambda_2_11_5 + 0.0984374880791 lambda_obj - 2 p2 + 2 p3 - 3 p4 + 3 p5
 >= 0.0984374880988
_C95: lambda_2_20_5 - 0.0492187440395 p2 - 2 p3 + p5 >= 2.04921874404
_C96: lambda_2_21_5 + 0.0492187440395 lambda_obj - p2 - 2 p3 + p5
 >= 2.04921874405
_C97: lambda_2_21_5 + 0.0492187440395 lambda_obj - 3 p5 + 2 p6
 >= 2.04921874405
_C98: lambda_2_22_5 - 4 p3 - p7 >= 2
_C99: - 0.5 lambda_2_11_5 + lambda_obj >= 0.5
Bounds
 1 <= lambda_obj <= 2
 p1 = 1
 p2 <= 1
 p3 <= 1
 p4 <= 1
 p5 <= 1
 p6 <= 1
 p7 <= 1
End
